c Standarized MaxSat Instance
c{
c "sha1sum": "f4cbece30924e6d35426ebed09920ec90f325c35",
c "nvars": 140,
c "ncls": 1258,
c "nhards": 0,
c "nhard_len_stats":
c    { "min": 0, "max": 0, "ave": 0.00,
c      "stddev": 0.00 },
c "nsofts": 1258,
c "nsoft_len_stats":
c    { "min": 2, "max": 2, "ave": 2.00,
c      "stddev": 0.00 },
c "nsoft_wts": 1,
c "soft_wt_stats":
c    { "min": 1, "max": 1, "ave": 1.00,
c      "stddev": 0.00 }
c}
c------------------------------------------------------------
c strEdges: 125  randomEdges: 504 
c degrees:  1  2 
c girth: Inf max: -43.604516  
c Hgirth mixed MAXCUT instance
c generated from an undirected graph
c to solve unweighted MaxCut
p wcnf 140 1258 1259
1 96 123 0
1 -96 -123 0
1 96 7 0
1 -96 -7 0
1 74 1 0
1 -74 -1 0
1 74 13 0
1 -74 -13 0
1 46 45 0
1 -46 -45 0
1 46 6 0
1 -46 -6 0
1 15 38 0
1 -15 -38 0
1 15 17 0
1 -15 -17 0
1 138 115 0
1 -138 -115 0
1 129 48 0
1 -129 -48 0
1 129 113 0
1 -129 -113 0
1 44 42 0
1 -44 -42 0
1 44 58 0
1 -44 -58 0
1 112 83 0
1 -112 -83 0
1 112 127 0
1 -112 -127 0
1 32 29 0
1 -32 -29 0
1 108 13 0
1 -108 -13 0
1 120 50 0
1 -120 -50 0
1 125 88 0
1 -125 -88 0
1 125 47 0
1 -125 -47 0
1 52 14 0
1 -52 -14 0
1 52 38 0
1 -52 -38 0
1 121 97 0
1 -121 -97 0
1 121 134 0
1 -121 -134 0
1 3 11 0
1 -3 -11 0
1 3 133 0
1 -3 -133 0
1 95 47 0
1 -95 -47 0
1 95 128 0
1 -95 -128 0
1 109 127 0
1 -109 -127 0
1 109 48 0
1 -109 -48 0
1 107 80 0
1 -107 -80 0
1 107 76 0
1 -107 -76 0
1 5 65 0
1 -5 -65 0
1 5 37 0
1 -5 -37 0
1 94 106 0
1 -94 -106 0
1 94 115 0
1 -94 -115 0
1 2 133 0
1 -2 -133 0
1 2 114 0
1 -2 -114 0
1 41 61 0
1 -41 -61 0
1 41 102 0
1 -41 -102 0
1 25 104 0
1 -25 -104 0
1 111 67 0
1 -111 -67 0
1 111 104 0
1 -111 -104 0
1 55 62 0
1 -55 -62 0
1 23 116 0
1 -23 -116 0
1 23 51 0
1 -23 -51 0
1 77 40 0
1 -77 -40 0
1 77 122 0
1 -77 -122 0
1 53 128 0
1 -53 -128 0
1 53 29 0
1 -53 -29 0
1 78 98 0
1 -78 -98 0
1 78 28 0
1 -78 -28 0
1 10 93 0
1 -10 -93 0
1 10 136 0
1 -10 -136 0
1 118 43 0
1 -118 -43 0
1 118 69 0
1 -118 -69 0
1 12 24 0
1 -12 -24 0
1 82 113 0
1 -82 -113 0
1 71 84 0
1 -71 -84 0
1 71 8 0
1 -71 -8 0
1 26 132 0
1 -26 -132 0
1 26 57 0
1 -26 -57 0
1 101 136 0
1 -101 -136 0
1 101 72 0
1 -101 -72 0
1 79 72 0
1 -79 -72 0
1 79 83 0
1 -79 -83 0
1 64 37 0
1 -64 -37 0
1 64 11 0
1 -64 -11 0
1 20 58 0
1 -20 -58 0
1 20 117 0
1 -20 -117 0
1 131 49 0
1 -131 -49 0
1 131 42 0
1 -131 -42 0
1 86 134 0
1 -86 -134 0
1 137 22 0
1 -137 -22 0
1 19 6 0
1 -19 -6 0
1 19 123 0
1 -19 -123 0
1 90 36 0
1 -90 -36 0
1 90 106 0
1 -90 -106 0
1 56 140 0
1 -56 -140 0
1 103 135 0
1 -103 -135 0
1 75 16 0
1 -75 -16 0
1 75 140 0
1 -75 -140 0
1 85 27 0
1 -85 -27 0
1 85 116 0
1 -85 -116 0
1 4 68 0
1 -4 -68 0
1 39 9 0
1 -39 -9 0
1 39 16 0
1 -39 -16 0
1 119 122 0
1 -119 -122 0
1 119 24 0
1 -119 -24 0
1 63 69 0
1 -63 -69 0
1 63 67 0
1 -63 -67 0
1 54 102 0
1 -54 -102 0
1 54 50 0
1 -54 -50 0
1 18 114 0
1 -18 -114 0
1 18 97 0
1 -18 -97 0
1 66 105 0
1 -66 -105 0
1 66 59 0
1 -66 -59 0
1 139 126 0
1 -139 -126 0
1 139 9 0
1 -139 -9 0
1 91 21 0
1 -91 -21 0
1 91 124 0
1 -91 -124 0
1 35 7 0
1 -35 -7 0
1 35 126 0
1 -35 -126 0
1 30 8 0
1 -30 -8 0
1 30 49 0
1 -30 -49 0
1 89 117 0
1 -89 -117 0
1 89 80 0
1 -89 -80 0
1 34 76 0
1 -34 -76 0
1 31 99 0
1 -31 -99 0
1 31 93 0
1 -31 -93 0
1 70 81 0
1 -70 -81 0
1 130 59 0
1 -130 -59 0
1 130 88 0
1 -130 -88 0
1 60 33 0
1 -60 -33 0
1 60 65 0
1 -60 -65 0
1 73 17 0
1 -73 -17 0
1 73 40 0
1 -73 -40 0
1 110 124 0
1 -110 -124 0
1 110 14 0
1 -110 -14 0
1 92 28 0
1 -92 -28 0
1 92 27 0
1 -92 -27 0
1 87 57 0
1 -87 -57 0
1 87 68 0
1 -87 -68 0
1 100 51 0
1 -100 -51 0
1 100 33 0
1 -100 -33 0
1 77 102 0
1 -77 -102 0
1 131 116 0
1 -131 -116 0
1 79 20 0
1 -79 -20 0
1 129 120 0
1 -129 -120 0
1 34 29 0
1 -34 -29 0
1 56 63 0
1 -56 -63 0
1 107 127 0
1 -107 -127 0
1 116 69 0
1 -116 -69 0
1 102 28 0
1 -102 -28 0
1 129 89 0
1 -129 -89 0
1 108 48 0
1 -108 -48 0
1 2 38 0
1 -2 -38 0
1 87 133 0
1 -87 -133 0
1 107 119 0
1 -107 -119 0
1 6 126 0
1 -6 -126 0
1 31 47 0
1 -31 -47 0
1 96 87 0
1 -96 -87 0
1 36 27 0
1 -36 -27 0
1 73 97 0
1 -73 -97 0
1 45 134 0
1 -45 -134 0
1 30 13 0
1 -30 -13 0
1 46 81 0
1 -46 -81 0
1 64 67 0
1 -64 -67 0
1 49 134 0
1 -49 -134 0
1 48 51 0
1 -48 -51 0
1 136 16 0
1 -136 -16 0
1 13 72 0
1 -13 -72 0
1 106 17 0
1 -106 -17 0
1 113 27 0
1 -113 -27 0
1 75 24 0
1 -75 -24 0
1 70 8 0
1 -70 -8 0
1 88 69 0
1 -88 -69 0
1 52 13 0
1 -52 -13 0
1 66 133 0
1 -66 -133 0
1 2 33 0
1 -2 -33 0
1 53 64 0
1 -53 -64 0
1 121 67 0
1 -121 -67 0
1 137 90 0
1 -137 -90 0
1 108 40 0
1 -108 -40 0
1 10 37 0
1 -10 -37 0
1 44 29 0
1 -44 -29 0
1 25 64 0
1 -25 -64 0
1 23 77 0
1 -23 -77 0
1 91 102 0
1 -91 -102 0
1 52 114 0
1 -52 -114 0
1 116 33 0
1 -116 -33 0
1 131 60 0
1 -131 -60 0
1 46 57 0
1 -46 -57 0
1 14 37 0
1 -14 -37 0
1 104 40 0
1 -104 -40 0
1 56 135 0
1 -56 -135 0
1 66 17 0
1 -66 -17 0
1 91 72 0
1 -91 -72 0
1 36 76 0
1 -36 -76 0
1 131 13 0
1 -131 -13 0
1 100 67 0
1 -100 -67 0
1 82 21 0
1 -82 -21 0
1 54 97 0
1 -54 -97 0
1 94 47 0
1 -94 -47 0
1 32 21 0
1 -32 -21 0
1 107 114 0
1 -107 -114 0
1 26 126 0
1 -26 -126 0
1 45 33 0
1 -45 -33 0
1 88 72 0
1 -88 -72 0
1 46 21 0
1 -46 -21 0
1 5 98 0
1 -5 -98 0
1 38 124 0
1 -38 -124 0
1 89 34 0
1 -89 -34 0
1 119 38 0
1 -119 -38 0
1 11 6 0
1 -11 -6 0
1 109 89 0
1 -109 -89 0
1 70 38 0
1 -70 -38 0
1 64 45 0
1 -64 -45 0
1 96 75 0
1 -96 -75 0
1 78 69 0
1 -78 -69 0
1 111 102 0
1 -111 -102 0
1 23 61 0
1 -23 -61 0
1 98 99 0
1 -98 -99 0
1 77 14 0
1 -77 -14 0
1 39 105 0
1 -39 -105 0
1 116 57 0
1 -116 -57 0
1 53 11 0
1 -53 -11 0
1 53 28 0
1 -53 -28 0
1 20 132 0
1 -20 -132 0
1 25 34 0
1 -25 -34 0
1 100 116 0
1 -100 -116 0
1 136 99 0
1 -136 -99 0
1 132 105 0
1 -132 -105 0
1 73 28 0
1 -73 -28 0
1 85 38 0
1 -85 -38 0
1 35 60 0
1 -35 -60 0
1 36 16 0
1 -36 -16 0
1 45 116 0
1 -45 -116 0
1 38 16 0
1 -38 -16 0
1 85 119 0
1 -85 -119 0
1 109 59 0
1 -109 -59 0
1 71 61 0
1 -71 -61 0
1 129 5 0
1 -129 -5 0
1 112 17 0
1 -112 -17 0
1 112 84 0
1 -112 -84 0
1 118 92 0
1 -118 -92 0
1 72 99 0
1 -72 -99 0
1 44 124 0
1 -44 -124 0
1 78 131 0
1 -78 -131 0
1 109 111 0
1 -109 -111 0
1 23 131 0
1 -23 -131 0
1 123 7 0
1 -123 -7 0
1 41 79 0
1 -41 -79 0
1 87 8 0
1 -87 -8 0
1 56 27 0
1 -56 -27 0
1 120 122 0
1 -120 -122 0
1 19 90 0
1 -19 -90 0
1 74 10 0
1 -74 -10 0
1 68 117 0
1 -68 -117 0
1 86 30 0
1 -86 -30 0
1 91 65 0
1 -91 -65 0
1 120 121 0
1 -120 -121 0
1 26 28 0
1 -26 -28 0
1 23 102 0
1 -23 -102 0
1 115 36 0
1 -115 -36 0
1 87 76 0
1 -87 -76 0
1 90 85 0
1 -90 -85 0
1 112 10 0
1 -112 -10 0
1 121 66 0
1 -121 -66 0
1 129 133 0
1 -129 -133 0
1 107 105 0
1 -107 -105 0
1 65 81 0
1 -65 -81 0
1 115 61 0
1 -115 -61 0
1 86 17 0
1 -86 -17 0
1 104 98 0
1 -104 -98 0
1 11 105 0
1 -11 -105 0
1 31 45 0
1 -31 -45 0
1 84 57 0
1 -84 -57 0
1 108 122 0
1 -108 -122 0
1 32 126 0
1 -32 -126 0
1 82 60 0
1 -82 -60 0
1 11 37 0
1 -11 -37 0
1 60 126 0
1 -60 -126 0
1 121 62 0
1 -121 -62 0
1 19 127 0
1 -19 -127 0
1 39 14 0
1 -39 -14 0
1 54 29 0
1 -54 -29 0
1 26 72 0
1 -26 -72 0
1 12 30 0
1 -12 -30 0
1 52 48 0
1 -52 -48 0
1 15 84 0
1 -15 -84 0
1 86 137 0
1 -86 -137 0
1 15 124 0
1 -15 -124 0
1 106 69 0
1 -106 -69 0
1 68 9 0
1 -68 -9 0
1 38 14 0
1 -38 -14 0
1 60 22 0
1 -60 -22 0
1 79 87 0
1 -79 -87 0
1 92 127 0
1 -92 -127 0
1 73 68 0
1 -73 -68 0
1 79 31 0
1 -79 -31 0
1 107 37 0
1 -107 -37 0
1 10 104 0
1 -10 -104 0
1 53 134 0
1 -53 -134 0
1 130 92 0
1 -130 -92 0
1 125 20 0
1 -125 -20 0
1 25 133 0
1 -25 -133 0
1 66 38 0
1 -66 -38 0
1 83 16 0
1 -83 -16 0
1 26 84 0
1 -26 -84 0
1 27 68 0
1 -27 -68 0
1 125 87 0
1 -125 -87 0
1 29 97 0
1 -29 -97 0
1 95 105 0
1 -95 -105 0
1 41 101 0
1 -41 -101 0
1 111 76 0
1 -111 -76 0
1 2 26 0
1 -2 -26 0
1 92 37 0
1 -92 -37 0
1 41 97 0
1 -41 -97 0
1 53 131 0
1 -53 -131 0
1 23 50 0
1 -23 -50 0
1 62 59 0
1 -62 -59 0
1 120 80 0
1 -120 -80 0
1 109 21 0
1 -109 -21 0
1 129 8 0
1 -129 -8 0
1 90 27 0
1 -90 -27 0
1 4 51 0
1 -4 -51 0
1 136 126 0
1 -136 -126 0
1 63 83 0
1 -63 -83 0
1 46 36 0
1 -46 -36 0
1 115 29 0
1 -115 -29 0
1 82 86 0
1 -82 -86 0
1 129 90 0
1 -129 -90 0
1 75 124 0
1 -75 -124 0
1 69 33 0
1 -69 -33 0
1 75 49 0
1 -75 -49 0
1 48 61 0
1 -48 -61 0
1 80 76 0
1 -80 -76 0
1 19 110 0
1 -19 -110 0
1 131 18 0
1 -131 -18 0
1 96 23 0
1 -96 -23 0
1 120 58 0
1 -120 -58 0
1 2 82 0
1 -2 -82 0
1 12 35 0
1 -12 -35 0
1 32 68 0
1 -32 -68 0
1 3 137 0
1 -3 -137 0
1 102 33 0
1 -102 -33 0
1 70 42 0
1 -70 -42 0
1 77 49 0
1 -77 -49 0
1 119 61 0
1 -119 -61 0
1 32 59 0
1 -32 -59 0
1 10 35 0
1 -10 -35 0
1 136 17 0
1 -136 -17 0
1 88 59 0
1 -88 -59 0
1 82 61 0
1 -82 -61 0
1 18 47 0
1 -18 -47 0
1 139 69 0
1 -139 -69 0
1 82 85 0
1 -82 -85 0
1 74 12 0
1 -74 -12 0
1 90 66 0
1 -90 -66 0
1 56 39 0
1 -56 -39 0
1 55 83 0
1 -55 -83 0
1 84 7 0
1 -84 -7 0
1 108 24 0
1 -108 -24 0
1 54 72 0
1 -54 -72 0
1 35 61 0
1 -35 -61 0
1 46 18 0
1 -46 -18 0
1 46 48 0
1 -46 -48 0
1 19 59 0
1 -19 -59 0
1 20 37 0
1 -20 -37 0
1 112 51 0
1 -112 -51 0
1 129 45 0
1 -129 -45 0
1 25 126 0
1 -25 -126 0
1 64 131 0
1 -64 -131 0
1 103 132 0
1 -103 -132 0
1 85 34 0
1 -85 -34 0
1 42 49 0
1 -42 -49 0
1 46 42 0
1 -46 -42 0
1 80 33 0
1 -80 -33 0
1 132 9 0
1 -132 -9 0
1 112 33 0
1 -112 -33 0
1 62 99 0
1 -62 -99 0
1 119 84 0
1 -119 -84 0
1 129 64 0
1 -129 -64 0
1 3 131 0
1 -3 -131 0
1 1 132 0
1 -1 -132 0
1 55 64 0
1 -55 -64 0
1 101 140 0
1 -101 -140 0
1 32 14 0
1 -32 -14 0
1 48 113 0
1 -48 -113 0
1 5 77 0
1 -5 -77 0
1 90 47 0
1 -90 -47 0
1 112 115 0
1 -112 -115 0
1 137 17 0
1 -137 -17 0
1 34 68 0
1 -34 -68 0
1 74 104 0
1 -74 -104 0
1 115 80 0
1 -115 -80 0
1 70 132 0
1 -70 -132 0
1 121 29 0
1 -121 -29 0
1 100 36 0
1 -100 -36 0
1 16 59 0
1 -16 -59 0
1 96 116 0
1 -96 -116 0
1 134 124 0
1 -134 -124 0
1 70 87 0
1 -70 -87 0
1 139 134 0
1 -139 -134 0
1 91 81 0
1 -91 -81 0
1 131 21 0
1 -131 -21 0
1 4 83 0
1 -4 -83 0
1 43 117 0
1 -43 -117 0
1 53 6 0
1 -53 -6 0
1 26 134 0
1 -26 -134 0
1 50 33 0
1 -50 -33 0
1 132 28 0
1 -132 -28 0
1 103 83 0
1 -103 -83 0
1 43 6 0
1 -43 -6 0
1 111 49 0
1 -111 -49 0
1 43 36 0
1 -43 -36 0
1 86 73 0
1 -86 -73 0
1 40 8 0
1 -40 -8 0
1 52 119 0
1 -52 -119 0
1 20 100 0
1 -20 -100 0
1 12 64 0
1 -12 -64 0
1 130 57 0
1 -130 -57 0
1 38 29 0
1 -38 -29 0
1 120 107 0
1 -120 -107 0
1 123 43 0
1 -123 -43 0
1 133 61 0
1 -133 -61 0
1 26 65 0
1 -26 -65 0
1 31 124 0
1 -31 -124 0
1 40 117 0
1 -40 -117 0
1 46 17 0
1 -46 -17 0
1 87 16 0
1 -87 -16 0
1 107 87 0
1 -107 -87 0
1 120 59 0
1 -120 -59 0
1 8 51 0
1 -8 -51 0
1 25 28 0
1 -25 -28 0
1 65 106 0
1 -65 -106 0
1 82 48 0
1 -82 -48 0
1 137 50 0
1 -137 -50 0
1 63 60 0
1 -63 -60 0
1 108 19 0
1 -108 -19 0
1 88 16 0
1 -88 -16 0
1 27 7 0
1 -27 -7 0
1 30 22 0
1 -30 -22 0
1 85 84 0
1 -85 -84 0
1 30 113 0
1 -30 -113 0
1 129 20 0
1 -129 -20 0
1 139 49 0
1 -139 -49 0
1 66 123 0
1 -66 -123 0
1 94 61 0
1 -94 -61 0
1 38 28 0
1 -38 -28 0
1 130 93 0
1 -130 -93 0
1 37 81 0
1 -37 -81 0
1 91 93 0
1 -91 -93 0
1 95 88 0
1 -95 -88 0
1 66 24 0
1 -66 -24 0
1 115 122 0
1 -115 -122 0
1 19 8 0
1 -19 -8 0
1 26 68 0
1 -26 -68 0
1 41 50 0
1 -41 -50 0
1 71 98 0
1 -71 -98 0
1 130 97 0
1 -130 -97 0
1 58 17 0
1 -58 -17 0
1 25 4 0
1 -25 -4 0
1 94 13 0
1 -94 -13 0
1 52 73 0
1 -52 -73 0
1 93 33 0
1 -93 -33 0
1 41 85 0
1 -41 -85 0
1 101 114 0
1 -101 -114 0
1 137 56 0
1 -137 -56 0
1 138 94 0
1 -138 -94 0
1 77 69 0
1 -77 -69 0
1 96 31 0
1 -96 -31 0
1 66 47 0
1 -66 -47 0
1 77 124 0
1 -77 -124 0
1 10 87 0
1 -10 -87 0
1 72 21 0
1 -72 -21 0
1 41 76 0
1 -41 -76 0
1 42 99 0
1 -42 -99 0
1 83 14 0
1 -83 -14 0
1 63 114 0
1 -63 -114 0
1 45 83 0
1 -45 -83 0
1 125 30 0
1 -125 -30 0
1 111 85 0
1 -111 -85 0
1 105 59 0
1 -105 -59 0
1 80 28 0
1 -80 -28 0
1 90 70 0
1 -90 -70 0
1 120 2 0
1 -120 -2 0
1 109 49 0
1 -109 -49 0
1 63 40 0
1 -63 -40 0
1 138 35 0
1 -138 -35 0
1 110 133 0
1 -110 -133 0
1 90 34 0
1 -90 -34 0
1 31 24 0
1 -31 -24 0
1 83 116 0
1 -83 -116 0
1 87 36 0
1 -87 -36 0
1 23 16 0
1 -23 -16 0
1 14 140 0
1 -14 -140 0
1 109 102 0
1 -109 -102 0
1 1 124 0
1 -1 -124 0
1 23 69 0
1 -23 -69 0
1 55 115 0
1 -55 -115 0
1 45 40 0
1 -45 -40 0
1 35 8 0
1 -35 -8 0
1 37 134 0
1 -37 -134 0
1 82 80 0
1 -82 -80 0
1 100 88 0
1 -100 -88 0
1 74 135 0
1 -74 -135 0
1 92 126 0
1 -92 -126 0
1 2 16 0
1 -2 -16 0
1 52 87 0
1 -52 -87 0
1 116 113 0
1 -116 -113 0
1 13 122 0
1 -13 -122 0
1 29 14 0
1 -29 -14 0
1 66 83 0
1 -66 -83 0
1 78 19 0
1 -78 -19 0
1 90 83 0
1 -90 -83 0
1 138 57 0
1 -138 -57 0
1 19 72 0
1 -19 -72 0
1 112 95 0
1 -112 -95 0
1 20 106 0
1 -20 -106 0
1 32 79 0
1 -32 -79 0
1 86 42 0
1 -86 -42 0
1 37 58 0
1 -37 -58 0
1 121 53 0
1 -121 -53 0
1 45 81 0
1 -45 -81 0
1 3 20 0
1 -3 -20 0
1 73 50 0
1 -73 -50 0
1 44 54 0
1 -44 -54 0
1 112 81 0
1 -112 -81 0
1 48 135 0
1 -48 -135 0
1 139 47 0
1 -139 -47 0
1 94 122 0
1 -94 -122 0
1 125 11 0
1 -125 -11 0
1 10 1 0
1 -10 -1 0
1 125 109 0
1 -125 -109 0
1 102 117 0
1 -102 -117 0
1 55 36 0
1 -55 -36 0
1 137 28 0
1 -137 -28 0
1 138 102 0
1 -138 -102 0
1 139 73 0
1 -139 -73 0
1 96 54 0
1 -96 -54 0
1 4 18 0
1 -4 -18 0
1 3 34 0
1 -3 -34 0
1 82 34 0
1 -82 -34 0
1 79 130 0
1 -79 -130 0
1 90 1 0
1 -90 -1 0
1 52 33 0
1 -52 -33 0
1 70 59 0
1 -70 -59 0
1 18 21 0
1 -18 -21 0
1 70 22 0
1 -70 -22 0
1 47 49 0
1 -47 -49 0
1 137 123 0
1 -137 -123 0
1 74 81 0
1 -74 -81 0
1 82 83 0
1 -82 -83 0
1 96 124 0
1 -96 -124 0
1 115 33 0
1 -115 -33 0
1 39 124 0
1 -39 -124 0
1 109 103 0
1 -109 -103 0
1 136 37 0
1 -136 -37 0
1 91 57 0
1 -91 -57 0
1 78 126 0
1 -78 -126 0
1 1 37 0
1 -1 -37 0
1 131 33 0
1 -131 -33 0
1 133 67 0
1 -133 -67 0
1 74 42 0
1 -74 -42 0
1 71 88 0
1 -71 -88 0
1 94 29 0
1 -94 -29 0
1 96 12 0
1 -96 -12 0
1 52 61 0
1 -52 -61 0
1 45 98 0
1 -45 -98 0
1 74 108 0
1 -74 -108 0
1 23 30 0
1 -23 -30 0
1 125 130 0
1 -125 -130 0
1 22 140 0
1 -22 -140 0
1 76 57 0
1 -76 -57 0
1 112 41 0
1 -112 -41 0
1 115 14 0
1 -115 -14 0
1 96 40 0
1 -96 -40 0
1 137 115 0
1 -137 -115 0
1 25 105 0
1 -25 -105 0
1 89 67 0
1 -89 -67 0
1 64 92 0
1 -64 -92 0
1 97 140 0
1 -97 -140 0
1 115 84 0
1 -115 -84 0
1 26 75 0
1 -26 -75 0
1 111 47 0
1 -111 -47 0
1 19 58 0
1 -19 -58 0
1 53 59 0
1 -53 -59 0
1 25 17 0
1 -25 -17 0
1 129 105 0
1 -129 -105 0
1 53 91 0
1 -53 -91 0
1 85 93 0
1 -85 -93 0
1 84 51 0
1 -84 -51 0
1 50 117 0
1 -50 -117 0
1 70 33 0
1 -70 -33 0
1 96 9 0
1 -96 -9 0
1 76 17 0
1 -76 -17 0
1 56 42 0
1 -56 -42 0
1 29 59 0
1 -29 -59 0
1 48 72 0
1 -48 -72 0
1 50 61 0
1 -50 -61 0
1 107 113 0
1 -107 -113 0
1 82 130 0
1 -82 -130 0
1 107 59 0
1 -107 -59 0
1 65 7 0
1 -65 -7 0
1 74 119 0
1 -74 -119 0
1 85 117 0
1 -85 -117 0
1 35 84 0
1 -35 -84 0
1 63 134 0
1 -63 -134 0
1 110 16 0
1 -110 -16 0
1 107 136 0
1 -107 -136 0
1 16 57 0
1 -16 -57 0
1 27 33 0
1 -27 -33 0
1 74 63 0
1 -74 -63 0
1 135 76 0
1 -135 -76 0
1 94 64 0
1 -94 -64 0
1 113 17 0
1 -113 -17 0
1 15 130 0
1 -15 -130 0
1 42 104 0
1 -42 -104 0
1 32 40 0
1 -32 -40 0
1 38 47 0
1 -38 -47 0
1 106 81 0
1 -106 -81 0
1 25 93 0
1 -25 -93 0
1 118 116 0
1 -118 -116 0
1 10 103 0
1 -10 -103 0
1 39 17 0
1 -39 -17 0
1 112 114 0
1 -112 -114 0
1 84 136 0
1 -84 -136 0
1 43 134 0
1 -43 -134 0
1 112 108 0
1 -112 -108 0
1 10 60 0
1 -10 -60 0
1 66 49 0
1 -66 -49 0
1 45 13 0
1 -45 -13 0
1 100 97 0
1 -100 -97 0
1 96 59 0
1 -96 -59 0
1 123 81 0
1 -123 -81 0
1 138 125 0
1 -138 -125 0
1 44 112 0
1 -44 -112 0
1 26 56 0
1 -26 -56 0
1 55 105 0
1 -55 -105 0
1 78 6 0
1 -78 -6 0
1 20 63 0
1 -20 -63 0
1 31 8 0
1 -31 -8 0
1 79 100 0
1 -79 -100 0
1 46 78 0
1 -46 -78 0
1 23 86 0
1 -23 -86 0
1 127 133 0
1 -127 -133 0
1 79 67 0
1 -79 -67 0
